1971.67 0
0 52 51 80 76 56 45 35 63 62 0 
0 11 97 93 89 88 94 98 95 0 
0 53 59 43 38 42 37 54 32 49 0 
0 61 64 65 66 50 87 84 86 82 81 85 83 13 27 0 
0 19 70 72 71 69 77 78 79 57 55 0 
0 23 91 96 90 92 17 0 
0 7 100 6 8 9 2 1 10 5 3 4 16 0 
0 26 20 18 99 0 
0 12 15 21 25 0 
0 60 29 44 58 46 34 48 47 36 31 33 40 39 41 28 67 30 68 0 
0 22 14 73 74 75 24 0 
